NAME: Random_65_5
ELLAPSED_TIME_(ms): 0
TOUR_SIZE: 1595.366
TOUR_SECTION
0
39
14
20
58
2
28
26
3
17
4
59
63
16
38
35
42
51
47
30
46
55
7
11
41
15
24
45
23
6
44
52
27
12
22
49
31
37
21
56
9
8
50
36
33
48
32
1
18
40
19
29
25
5
57
53
43
54
61
60
62
13
34
64
10
0
EOF
